N = 6;
H = 5;
T = 2;

avail = array3d(1..N, 1..H, 1..T, [7, 9, 2, 6, 2, 10, 10, 3, 0, 2, 8, 9, 2, 7, 3, 0, 5, 8, 10, 10, 5, 0, 10, 6, 4, 6, 7, 4, 7, 1, 7, 8, 0, 6, 9, 8, 8, 9, 2, 5, 1, 1, 9, 6, 6, 6, 2, 1, 2, 3, 6, 7, 6, 5, 5, 10, 0, 5, 9, 2]);

r = array2d(1..H, 1..T, [2, 1, 0, 2, 1, 1, 2, 2, 1, 1]);
